
;this file is automatically generated: Mon Feb 10 17:02:04 CST 2020

;declarations generated

(declare-fun oclExcludes ( Int Int) Bool)
(declare-fun Cardinality ( Int) Int)
(declare-fun class15_Class15IntAttr2 ( Int) Int)
(declare-fun class15_Class15IntAttr4 ( Int) Int)
(declare-fun oclSelect ( Int Bool) Int)
(declare-fun obj_11076330_6761_439c_97e4_66ad59c7a288 ( Int) Int)
(declare-fun Enum0 ( Int) Int)
(declare-fun Enum1 ( Int) Int)
(declare-fun container_ ( Int) Int)
(declare-fun type_dc407aa4_2206_43bf_94c8_9ec46e209915_Class15 ( Int) Bool)
(declare-fun oclIncludes ( Int Int) Bool)
(declare-fun ObjAt ( Int Int) Int)

;formula(s) generated
(assert (! (forall ((c5_2 Int)(c5_1 Int)) (=> (and ( type_dc407aa4_2206_43bf_94c8_9ec46e209915_Class15 c5_1 )  ( type_dc407aa4_2206_43bf_94c8_9ec46e209915_Class15 c5_2 ) ) (= ( class15_Class15IntAttr4 ( obj_11076330_6761_439c_97e4_66ad59c7a288 c5_1 )  )  ( class15_Class15IntAttr2 ( obj_11076330_6761_439c_97e4_66ad59c7a288 c5_2 )  ) ))):named l0))
(assert (exists ((o Int)) ( type_dc407aa4_2206_43bf_94c8_9ec46e209915_Class15 ( obj_11076330_6761_439c_97e4_66ad59c7a288 o )  ) ))

 ;end of formula 